0 51 
1 52 
2 52 
3 51 
4 51 
5 47 
6 44 
7 42 
8 40 
9 39 
10 35 
11 37 
12 33 
13 30 
14 27 
15 24 
16 23 
17 23 
18 22 
19 22 
20 22 
21 19 
22 18 
23 16 
24 14 
25 11 
26 10 
27 7 
28 6 
29 5 
30 5 
31 4 
32 2 
33 0 
34 0 

